PatchBench/BenchmarksExist/linux/CWE-189-Numeric-Errors/CVE_2011_2906_b5b515445f4f5a905c5dd27e6e682868ccd6c09d/pmcraid_ioctl_passthrough_SnippetExist32_2.smt2
; benchmark generated from python API
(set-info :status unknown)
(declare-fun rdi () (_ BitVec 32))
(assert
 (let (($x49 (bvsle rdi (_ bv0 32))))
 (let (($x50 (not $x49)))
 (let (($x244 (or $x50 (and $x49 (= ((_ extract 31 31) rdi) (_ bv0 1))))))
 (and $x244)))))
(check-sat)

